MARKOV
4
2 2 2 2 
4
1 0
2 2 1
2 0 2
2 2 3

2
1.50000000 1.50000000

4
0.30000000 0.70000000 0.90000000 0.10000000

4
2.80000000 0.20000000 0.20000000 2.80000000

4
0.50000000 1.50000000 1.10000000 0.90000000

